Route #1: 1 3 49 10 17 39 16 20 33 35 47 18 50 1
Route #2: 1 42 26 37 7 48 38 45 11 1
Route #3: 1 41 43 21 31 19 2 9 1
Route #4: 1 29 12 22 15 40 25 32 4 13 51 46 1
Route #5: 1 36 34 8 6 52 28 30 1
Route #6: 1 24 5 27 23 14 1
Route #7: 1 44 1
cost: 857
